p cnf 175 831
-2 34 0
2 -34 0
-8 40 0
8 -40 0
-14 46 0
14 -46 0
-20 52 0
20 -52 0
-26 58 0
26 -58 0
-32 64 0
32 -64 0
-38 70 0
38 -70 0
-44 76 0
44 -76 0
-50 82 0
50 -82 0
-56 88 0
56 -88 0
-62 94 0
62 -94 0
-68 100 0
68 -100 0
-74 106 0
74 -106 0
-80 112 0
80 -112 0
-86 118 0
86 -118 0
-92 124 0
92 -124 0
-98 130 0
98 -130 0
-104 136 0
104 -136 0
-110 142 0
110 -142 0
-116 148 0
116 -148 0
-1 9 0
1 -9 0
-7 15 0
7 -15 0
-13 21 0
13 -21 0
-19 27 0
19 -27 0
-31 39 0
31 -39 0
-37 45 0
37 -45 0
-43 51 0
43 -51 0
-49 57 0
49 -57 0
-61 69 0
61 -69 0
-67 75 0
67 -75 0
-73 81 0
73 -81 0
-79 87 0
79 -87 0
-91 99 0
91 -99 0
-97 105 0
97 -105 0
-103 111 0
103 -111 0
-109 117 0
109 -117 0
-121 129 0
121 -129 0
-127 135 0
127 -135 0
-133 141 0
133 -141 0
-139 147 0
139 -147 0
1 3 2 4 0
7 9 8 10 0
-13 -15 -14 16 0
-13 -15 -16 14 0
-13 -14 -16 15 0
-15 -14 -16 13 0
-19 -21 20 22 0
-19 -20 21 22 0
-19 -22 21 20 0
-21 -20 19 22 0
-21 -22 19 20 0
-20 -22 19 21 0
25 27 26 28 0
-31 -33 32 34 0
-31 -32 33 34 0
-31 -34 33 32 0
-33 -32 31 34 0
-33 -34 31 32 0
-32 -34 31 33 0
-37 -39 38 40 0
-37 -38 39 40 0
-37 -40 39 38 0
-39 -38 37 40 0
-39 -40 37 38 0
-38 -40 37 39 0
-43 -45 44 46 0
-43 -44 45 46 0
-43 -46 45 44 0
-45 -44 43 46 0
-45 -46 43 44 0
-44 -46 43 45 0
49 51 50 52 0
-55 -57 -56 58 0
-55 -57 -58 56 0
-55 -56 -58 57 0
-57 -56 -58 55 0
-61 0
-63 0
-62 0
-64 0
67 69 68 70 0
73 75 74 76 0
79 81 80 82 0
-79 -80 0
-79 -81 0
-79 -82 0
-80 -81 0
-80 -82 0
-81 -82 0
85 87 86 88 0
-91 -93 92 94 0
-91 -92 93 94 0
-91 -94 93 92 0
-93 -92 91 94 0
-93 -94 91 92 0
-92 -94 91 93 0
97 99 98 100 0
-103 -105 104 106 0
-103 -104 105 106 0
-103 -106 105 104 0
-105 -104 103 106 0
-105 -106 103 104 0
-104 -106 103 105 0
109 111 110 112 0
115 117 116 118 0
121 123 122 124 0
-127 -129 128 130 0
-127 -128 129 130 0
-127 -130 129 128 0
-129 -128 127 130 0
-129 -130 127 128 0
-128 -130 127 129 0
-133 -135 -134 136 0
-133 -135 -136 134 0
-133 -134 -136 135 0
-135 -134 -136 133 0
-139 -141 140 142 0
-139 -140 141 142 0
-139 -142 141 140 0
-141 -140 139 142 0
-141 -142 139 140 0
-140 -142 139 141 0
-145 -147 -146 148 0
-145 -147 -148 146 0
-145 -146 -148 147 0
-147 -146 -148 145 0
4 5 0
-4 -5 0
10 11 0
-10 -11 0
16 17 0
-16 -17 0
22 23 0
-22 -23 0
28 29 0
-28 -29 0
122 125 0
-122 -125 0
128 131 0
-128 -131 0
134 137 0
-134 -137 0
140 143 0
-140 -143 0
146 149 0
-146 -149 0
3 5 0
-3 -5 0
33 35 0
-33 -35 0
63 65 0
-63 -65 0
93 95 0
-93 -95 0
123 125 0
-123 -125 0
25 29 0
-25 -29 0
55 59 0
-55 -59 0
85 89 0
-85 -89 0
115 119 0
-115 -119 0
145 149 0
-145 -149 0
-5 -5 6 0
-5 -11 7 0
-5 -17 8 0
-5 -23 9 0
-5 -29 10 0
-5 -35 11 0
-5 -41 12 0
-5 -47 13 0
-5 -53 14 0
-5 -59 15 0
-5 -65 16 0
-5 -71 17 0
-5 -77 18 0
-5 -83 19 0
-5 -89 20 0
-5 -95 21 0
-5 -101 22 0
-5 -107 23 0
-5 -113 24 0
-5 -119 25 0
-5 -125 26 0
-5 -131 27 0
-5 -137 28 0
-5 -143 29 0
-5 -149 30 0
-11 -5 12 0
-11 -11 13 0
-11 -17 14 0
-11 -23 15 0
-11 -29 16 0
-11 -35 17 0
-11 -41 18 0
-11 -47 19 0
-11 -53 20 0
-11 -59 21 0
-11 -65 22 0
-11 -71 23 0
-11 -77 24 0
-11 -83 25 0
-11 -89 26 0
-11 -95 27 0
-11 -101 28 0
-11 -107 29 0
-11 -113 30 0
-11 -119 31 0
-11 -125 32 0
-11 -131 33 0
-11 -137 34 0
-11 -143 35 0
-11 -149 36 0
-17 -5 18 0
-17 -11 19 0
-17 -17 20 0
-17 -23 21 0
-17 -29 22 0
-17 -35 23 0
-17 -41 24 0
-17 -47 25 0
-17 -53 26 0
-17 -59 27 0
-17 -65 28 0
-17 -71 29 0
-17 -77 30 0
-17 -83 31 0
-17 -89 32 0
-17 -95 33 0
-17 -101 34 0
-17 -107 35 0
-17 -113 36 0
-17 -119 37 0
-17 -125 38 0
-17 -131 39 0
-17 -137 40 0
-17 -143 41 0
-17 -149 42 0
-23 -5 24 0
-23 -11 25 0
-23 -17 26 0
-23 -23 27 0
-23 -29 28 0
-23 -35 29 0
-23 -41 30 0
-23 -47 31 0
-23 -53 32 0
-23 -59 33 0
-23 -65 34 0
-23 -71 35 0
-23 -77 36 0
-23 -83 37 0
-23 -89 38 0
-23 -95 39 0
-23 -101 40 0
-23 -107 41 0
-23 -113 42 0
-23 -119 43 0
-23 -125 44 0
-23 -131 45 0
-23 -137 46 0
-23 -143 47 0
-23 -149 48 0
-29 -5 30 0
-29 -11 31 0
-29 -17 32 0
-29 -23 33 0
-29 -29 34 0
-29 -35 35 0
-29 -41 36 0
-29 -47 37 0
-29 -53 38 0
-29 -59 39 0
-29 -65 40 0
-29 -71 41 0
-29 -77 42 0
-29 -83 43 0
-29 -89 44 0
-29 -95 45 0
-29 -101 46 0
-29 -107 47 0
-29 -113 48 0
-29 -119 49 0
-29 -125 50 0
-29 -131 51 0
-29 -137 52 0
-29 -143 53 0
-29 -149 54 0
-35 -5 36 0
-35 -11 37 0
-35 -17 38 0
-35 -23 39 0
-35 -29 40 0
-35 -35 41 0
-35 -41 42 0
-35 -47 43 0
-35 -53 44 0
-35 -59 45 0
-35 -65 46 0
-35 -71 47 0
-35 -77 48 0
-35 -83 49 0
-35 -89 50 0
-35 -95 51 0
-35 -101 52 0
-35 -107 53 0
-35 -113 54 0
-35 -119 55 0
-35 -125 56 0
-35 -131 57 0
-35 -137 58 0
-35 -143 59 0
-35 -149 60 0
-41 -5 42 0
-41 -11 43 0
-41 -17 44 0
-41 -23 45 0
-41 -29 46 0
-41 -35 47 0
-41 -41 48 0
-41 -47 49 0
-41 -53 50 0
-41 -59 51 0
-41 -65 52 0
-41 -71 53 0
-41 -77 54 0
-41 -83 55 0
-41 -89 56 0
-41 -95 57 0
-41 -101 58 0
-41 -107 59 0
-41 -113 60 0
-41 -119 61 0
-41 -125 62 0
-41 -131 63 0
-41 -137 64 0
-41 -143 65 0
-41 -149 66 0
-47 -5 48 0
-47 -11 49 0
-47 -17 50 0
-47 -23 51 0
-47 -29 52 0
-47 -35 53 0
-47 -41 54 0
-47 -47 55 0
-47 -53 56 0
-47 -59 57 0
-47 -65 58 0
-47 -71 59 0
-47 -77 60 0
-47 -83 61 0
-47 -89 62 0
-47 -95 63 0
-47 -101 64 0
-47 -107 65 0
-47 -113 66 0
-47 -119 67 0
-47 -125 68 0
-47 -131 69 0
-47 -137 70 0
-47 -143 71 0
-47 -149 72 0
-53 -5 54 0
-53 -11 55 0
-53 -17 56 0
-53 -23 57 0
-53 -29 58 0
-53 -35 59 0
-53 -41 60 0
-53 -47 61 0
-53 -53 62 0
-53 -59 63 0
-53 -65 64 0
-53 -71 65 0
-53 -77 66 0
-53 -83 67 0
-53 -89 68 0
-53 -95 69 0
-53 -101 70 0
-53 -107 71 0
-53 -113 72 0
-53 -119 73 0
-53 -125 74 0
-53 -131 75 0
-53 -137 76 0
-53 -143 77 0
-53 -149 78 0
-59 -5 60 0
-59 -11 61 0
-59 -17 62 0
-59 -23 63 0
-59 -29 64 0
-59 -35 65 0
-59 -41 66 0
-59 -47 67 0
-59 -53 68 0
-59 -59 69 0
-59 -65 70 0
-59 -71 71 0
-59 -77 72 0
-59 -83 73 0
-59 -89 74 0
-59 -95 75 0
-59 -101 76 0
-59 -107 77 0
-59 -113 78 0
-59 -119 79 0
-59 -125 80 0
-59 -131 81 0
-59 -137 82 0
-59 -143 83 0
-59 -149 84 0
-65 -5 66 0
-65 -11 67 0
-65 -17 68 0
-65 -23 69 0
-65 -29 70 0
-65 -35 71 0
-65 -41 72 0
-65 -47 73 0
-65 -53 74 0
-65 -59 75 0
-65 -65 76 0
-65 -71 77 0
-65 -77 78 0
-65 -83 79 0
-65 -89 80 0
-65 -95 81 0
-65 -101 82 0
-65 -107 83 0
-65 -113 84 0
-65 -119 85 0
-65 -125 86 0
-65 -131 87 0
-65 -137 88 0
-65 -143 89 0
-65 -149 90 0
-71 -5 72 0
-71 -11 73 0
-71 -17 74 0
-71 -23 75 0
-71 -29 76 0
-71 -35 77 0
-71 -41 78 0
-71 -47 79 0
-71 -53 80 0
-71 -59 81 0
-71 -65 82 0
-71 -71 83 0
-71 -77 84 0
-71 -83 85 0
-71 -89 86 0
-71 -95 87 0
-71 -101 88 0
-71 -107 89 0
-71 -113 90 0
-71 -119 91 0
-71 -125 92 0
-71 -131 93 0
-71 -137 94 0
-71 -143 95 0
-71 -149 96 0
-77 -5 78 0
-77 -11 79 0
-77 -17 80 0
-77 -23 81 0
-77 -29 82 0
-77 -35 83 0
-77 -41 84 0
-77 -47 85 0
-77 -53 86 0
-77 -59 87 0
-77 -65 88 0
-77 -71 89 0
-77 -77 90 0
-77 -83 91 0
-77 -89 92 0
-77 -95 93 0
-77 -101 94 0
-77 -107 95 0
-77 -113 96 0
-77 -119 97 0
-77 -125 98 0
-77 -131 99 0
-77 -137 100 0
-77 -143 101 0
-77 -149 102 0
-83 -5 84 0
-83 -11 85 0
-83 -17 86 0
-83 -23 87 0
-83 -29 88 0
-83 -35 89 0
-83 -41 90 0
-83 -47 91 0
-83 -53 92 0
-83 -59 93 0
-83 -65 94 0
-83 -71 95 0
-83 -77 96 0
-83 -83 97 0
-83 -89 98 0
-83 -95 99 0
-83 -101 100 0
-83 -107 101 0
-83 -113 102 0
-83 -119 103 0
-83 -125 104 0
-83 -131 105 0
-83 -137 106 0
-83 -143 107 0
-83 -149 108 0
-89 -5 90 0
-89 -11 91 0
-89 -17 92 0
-89 -23 93 0
-89 -29 94 0
-89 -35 95 0
-89 -41 96 0
-89 -47 97 0
-89 -53 98 0
-89 -59 99 0
-89 -65 100 0
-89 -71 101 0
-89 -77 102 0
-89 -83 103 0
-89 -89 104 0
-89 -95 105 0
-89 -101 106 0
-89 -107 107 0
-89 -113 108 0
-89 -119 109 0
-89 -125 110 0
-89 -131 111 0
-89 -137 112 0
-89 -143 113 0
-89 -149 114 0
-95 -5 96 0
-95 -11 97 0
-95 -17 98 0
-95 -23 99 0
-95 -29 100 0
-95 -35 101 0
-95 -41 102 0
-95 -47 103 0
-95 -53 104 0
-95 -59 105 0
-95 -65 106 0
-95 -71 107 0
-95 -77 108 0
-95 -83 109 0
-95 -89 110 0
-95 -95 111 0
-95 -101 112 0
-95 -107 113 0
-95 -113 114 0
-95 -119 115 0
-95 -125 116 0
-95 -131 117 0
-95 -137 118 0
-95 -143 119 0
-95 -149 120 0
-101 -5 102 0
-101 -11 103 0
-101 -17 104 0
-101 -23 105 0
-101 -29 106 0
-101 -35 107 0
-101 -41 108 0
-101 -47 109 0
-101 -53 110 0
-101 -59 111 0
-101 -65 112 0
-101 -71 113 0
-101 -77 114 0
-101 -83 115 0
-101 -89 116 0
-101 -95 117 0
-101 -101 118 0
-101 -107 119 0
-101 -113 120 0
-101 -119 121 0
-101 -125 122 0
-101 -131 123 0
-101 -137 124 0
-101 -143 125 0
-101 -149 126 0
-107 -5 108 0
-107 -11 109 0
-107 -17 110 0
-107 -23 111 0
-107 -29 112 0
-107 -35 113 0
-107 -41 114 0
-107 -47 115 0
-107 -53 116 0
-107 -59 117 0
-107 -65 118 0
-107 -71 119 0
-107 -77 120 0
-107 -83 121 0
-107 -89 122 0
-107 -95 123 0
-107 -101 124 0
-107 -107 125 0
-107 -113 126 0
-107 -119 127 0
-107 -125 128 0
-107 -131 129 0
-107 -137 130 0
-107 -143 131 0
-107 -149 132 0
-113 -5 114 0
-113 -11 115 0
-113 -17 116 0
-113 -23 117 0
-113 -29 118 0
-113 -35 119 0
-113 -41 120 0
-113 -47 121 0
-113 -53 122 0
-113 -59 123 0
-113 -65 124 0
-113 -71 125 0
-113 -77 126 0
-113 -83 127 0
-113 -89 128 0
-113 -95 129 0
-113 -101 130 0
-113 -107 131 0
-113 -113 132 0
-113 -119 133 0
-113 -125 134 0
-113 -131 135 0
-113 -137 136 0
-113 -143 137 0
-113 -149 138 0
-119 -5 120 0
-119 -11 121 0
-119 -17 122 0
-119 -23 123 0
-119 -29 124 0
-119 -35 125 0
-119 -41 126 0
-119 -47 127 0
-119 -53 128 0
-119 -59 129 0
-119 -65 130 0
-119 -71 131 0
-119 -77 132 0
-119 -83 133 0
-119 -89 134 0
-119 -95 135 0
-119 -101 136 0
-119 -107 137 0
-119 -113 138 0
-119 -119 139 0
-119 -125 140 0
-119 -131 141 0
-119 -137 142 0
-119 -143 143 0
-119 -149 144 0
-125 -5 126 0
-125 -11 127 0
-125 -17 128 0
-125 -23 129 0
-125 -29 130 0
-125 -35 131 0
-125 -41 132 0
-125 -47 133 0
-125 -53 134 0
-125 -59 135 0
-125 -65 136 0
-125 -71 137 0
-125 -77 138 0
-125 -83 139 0
-125 -89 140 0
-125 -95 141 0
-125 -101 142 0
-125 -107 143 0
-125 -113 144 0
-125 -119 145 0
-125 -125 146 0
-125 -131 147 0
-125 -137 148 0
-125 -143 149 0
-125 -149 150 0
-131 -5 132 0
-131 -11 133 0
-131 -17 134 0
-131 -23 135 0
-131 -29 136 0
-131 -35 137 0
-131 -41 138 0
-131 -47 139 0
-131 -53 140 0
-131 -59 141 0
-131 -65 142 0
-131 -71 143 0
-131 -77 144 0
-131 -83 145 0
-131 -89 146 0
-131 -95 147 0
-131 -101 148 0
-131 -107 149 0
-131 -113 150 0
-131 -119 151 0
-131 -125 152 0
-131 -131 153 0
-131 -137 154 0
-131 -143 155 0
-131 -149 156 0
-137 -5 138 0
-137 -11 139 0
-137 -17 140 0
-137 -23 141 0
-137 -29 142 0
-137 -35 143 0
-137 -41 144 0
-137 -47 145 0
-137 -53 146 0
-137 -59 147 0
-137 -65 148 0
-137 -71 149 0
-137 -77 150 0
-137 -83 151 0
-137 -89 152 0
-137 -95 153 0
-137 -101 154 0
-137 -107 155 0
-137 -113 156 0
-137 -119 157 0
-137 -125 158 0
-137 -131 159 0
-137 -137 160 0
-137 -143 161 0
-137 -149 162 0
-143 -5 144 0
-143 -11 145 0
-143 -17 146 0
-143 -23 147 0
-143 -29 148 0
-143 -35 149 0
-143 -41 150 0
-143 -47 151 0
-143 -53 152 0
-143 -59 153 0
-143 -65 154 0
-143 -71 155 0
-143 -77 156 0
-143 -83 157 0
-143 -89 158 0
-143 -95 159 0
-143 -101 160 0
-143 -107 161 0
-143 -113 162 0
-143 -119 163 0
-143 -125 164 0
-143 -131 165 0
-143 -137 166 0
-143 -143 167 0
-143 -149 168 0
-149 -5 150 0
-149 -11 151 0
-149 -17 152 0
-149 -23 153 0
-149 -29 154 0
-149 -35 155 0
-149 -41 156 0
-149 -47 157 0
-149 -53 158 0
-149 -59 159 0
-149 -65 160 0
-149 -71 161 0
-149 -77 162 0
-149 -83 163 0
-149 -89 164 0
-149 -95 165 0
-149 -101 166 0
-149 -107 167 0
-149 -113 168 0
-149 -119 169 0
-149 -125 170 0
-149 -131 171 0
-149 -137 172 0
-149 -143 173 0
-149 -149 174 0
